# Solution for model evaporation_srl_ilp
# Objective value = 8.5976981732518212e+01
Z_438_0_0 0
Z_438_0_1 0
Z_438_0_2 0
Z_438_0_3 1
Z_438_0_4 0
Z_156_0_0 0
Z_156_0_1 1
Z_156_0_2 0
Z_156_0_3 0
Z_156_0_4 0
Z_647_6_0 0
Z_647_6_1 0
Z_647_6_2 0
Z_647_6_3 0
Z_647_6_4 1
Z_647_2_0 0
Z_647_2_1 0
Z_647_2_2 0
Z_647_2_3 0
Z_647_2_4 1
Z_647_3_0 0
Z_647_3_1 0
Z_647_3_2 0
Z_647_3_3 0
Z_647_3_4 1
Z_647_5_0 0
Z_647_5_1 0
Z_647_5_2 0
Z_647_5_3 0
Z_647_5_4 1
Z_647_1_0 0
Z_647_1_1 0
Z_647_1_2 0
Z_647_1_3 0
Z_647_1_4 1
Z_647_7_0 0
Z_647_7_1 0
Z_647_7_2 0
Z_647_7_3 0
Z_647_7_4 1
Z_647_4_0 0
Z_647_4_1 0
Z_647_4_2 0
Z_647_4_3 0
Z_647_4_4 1
Z_198_0_0 0
Z_198_0_1 0
Z_198_0_2 0
Z_198_0_3 1
Z_198_0_4 0
Z_364_0_0 0
Z_364_0_1 0
Z_364_0_2 0
Z_364_0_3 1
Z_364_0_4 0
Z_714_1_0 0
Z_714_1_1 0
Z_714_1_2 1
Z_714_1_3 0
Z_714_1_4 0
Z_755_0_0 0
Z_755_0_1 0
Z_755_0_2 1
Z_755_0_3 0
Z_755_0_4 0
Z_757_0_0 0
Z_757_0_1 0
Z_757_0_2 0
Z_757_0_3 1
Z_757_0_4 0
Z_343_1_0 0
Z_343_1_1 0
Z_343_1_2 1
Z_343_1_3 0
Z_343_1_4 0
Z_343_0_0 0
Z_343_0_1 0
Z_343_0_2 0
Z_343_0_3 1
Z_343_0_4 0
Z_244_3_0 0
Z_244_3_1 0
Z_244_3_2 0
Z_244_3_3 0
Z_244_3_4 1
Z_244_2_0 0
Z_244_2_1 0
Z_244_2_2 0
Z_244_2_3 0
Z_244_2_4 1
Z_244_1_0 0
Z_244_1_1 0
Z_244_1_2 0
Z_244_1_3 0
Z_244_1_4 1
Z_244_5_0 0
Z_244_5_1 0
Z_244_5_2 0
Z_244_5_3 0
Z_244_5_4 1
Z_244_6_0 0
Z_244_6_1 0
Z_244_6_2 0
Z_244_6_3 0
Z_244_6_4 1
Z_244_4_0 0
Z_244_4_1 0
Z_244_4_2 0
Z_244_4_3 0
Z_244_4_4 1
Z_384_1_0 0
Z_384_1_1 0
Z_384_1_2 0
Z_384_1_3 0
Z_384_1_4 1
Z_384_0_0 0
Z_384_0_1 0
Z_384_0_2 1
Z_384_0_3 0
Z_384_0_4 0
Z_384_2_0 0
Z_384_2_1 0
Z_384_2_2 0
Z_384_2_3 0
Z_384_2_4 1
Z_384_3_0 1
Z_384_3_1 0
Z_384_3_2 0
Z_384_3_3 0
Z_384_3_4 0
Z_266_7_0 0
Z_266_7_1 0
Z_266_7_2 0
Z_266_7_3 0
Z_266_7_4 1
Z_266_6_0 0
Z_266_6_1 0
Z_266_6_2 0
Z_266_6_3 0
Z_266_6_4 1
Z_266_3_0 0
Z_266_3_1 0
Z_266_3_2 0
Z_266_3_3 0
Z_266_3_4 1
Z_266_2_0 0
Z_266_2_1 0
Z_266_2_2 0
Z_266_2_3 0
Z_266_2_4 1
Z_266_4_0 0
Z_266_4_1 0
Z_266_4_2 0
Z_266_4_3 0
Z_266_4_4 1
Z_266_0_0 0
Z_266_0_1 0
Z_266_0_2 0
Z_266_0_3 0
Z_266_0_4 1
Z_266_1_0 0
Z_266_1_1 0
Z_266_1_2 0
Z_266_1_3 0
Z_266_1_4 1
Z_266_5_0 0
Z_266_5_1 0
Z_266_5_2 0
Z_266_5_3 0
Z_266_5_4 1
Z_266_8_0 0
Z_266_8_1 0
Z_266_8_2 0
Z_266_8_3 0
Z_266_8_4 1
Z_482_1_0 0
Z_482_1_1 0
Z_482_1_2 0
Z_482_1_3 0
Z_482_1_4 1
Z_482_0_0 0
Z_482_0_1 0
Z_482_0_2 1
Z_482_0_3 0
Z_482_0_4 0
Z_482_2_0 0
Z_482_2_1 0
Z_482_2_2 0
Z_482_2_3 0
Z_482_2_4 1
Z_482_3_0 1
Z_482_3_1 0
Z_482_3_2 0
Z_482_3_3 0
Z_482_3_4 0
Z_452_6_0 0
Z_452_6_1 0
Z_452_6_2 0
Z_452_6_3 0
Z_452_6_4 1
Z_452_4_0 0
Z_452_4_1 0
Z_452_4_2 0
Z_452_4_3 0
Z_452_4_4 1
Z_452_2_0 0
Z_452_2_1 0
Z_452_2_2 0
Z_452_2_3 0
Z_452_2_4 1
Z_452_9_0 0
Z_452_9_1 1
Z_452_9_2 0
Z_452_9_3 0
Z_452_9_4 0
Z_452_1_0 0
Z_452_1_1 0
Z_452_1_2 0
Z_452_1_3 0
Z_452_1_4 1
Z_452_7_0 0
Z_452_7_1 0
Z_452_7_2 0
Z_452_7_3 0
Z_452_7_4 1
Z_452_8_0 0
Z_452_8_1 0
Z_452_8_2 0
Z_452_8_3 0
Z_452_8_4 1
Z_452_3_0 0
Z_452_3_1 0
Z_452_3_2 0
Z_452_3_3 0
Z_452_3_4 1
Z_452_10_0 0
Z_452_10_1 0
Z_452_10_2 0
Z_452_10_3 0
Z_452_10_4 1
Z_452_5_0 1
Z_452_5_1 0
Z_452_5_2 0
Z_452_5_3 0
Z_452_5_4 0
Z_464_0_0 0
Z_464_0_1 0
Z_464_0_2 0
Z_464_0_3 1
Z_464_0_4 0
Z_125_0_0 0
Z_125_0_1 1
Z_125_0_2 0
Z_125_0_3 0
Z_125_0_4 0
Z_125_2_0 0
Z_125_2_1 0
Z_125_2_2 0
Z_125_2_3 0
Z_125_2_4 1
Z_125_1_0 0
Z_125_1_1 0
Z_125_1_2 0
Z_125_1_3 0
Z_125_1_4 1
Z_392_0_0 0
Z_392_0_1 1
Z_392_0_2 0
Z_392_0_3 0
Z_392_0_4 0
Z_247_0_0 0
Z_247_0_1 0
Z_247_0_2 0
Z_247_0_3 1
Z_247_0_4 0
Z_120_0_0 1
Z_120_0_1 0
Z_120_0_2 0
Z_120_0_3 0
Z_120_0_4 0
Z_590_1_0 0
Z_590_1_1 0
Z_590_1_2 1
Z_590_1_3 0
Z_590_1_4 0
Z_602_0_0 1
Z_602_0_1 0
Z_602_0_2 0
Z_602_0_3 0
Z_602_0_4 0
Z_602_1_0 0
Z_602_1_1 0
Z_602_1_2 1
Z_602_1_3 0
Z_602_1_4 0
Z_548_4_0 0
Z_548_4_1 0
Z_548_4_2 0
Z_548_4_3 0
Z_548_4_4 1
Z_548_1_0 0
Z_548_1_1 0
Z_548_1_2 0
Z_548_1_3 0
Z_548_1_4 1
Z_548_5_0 0
Z_548_5_1 0
Z_548_5_2 0
Z_548_5_3 0
Z_548_5_4 1
Z_548_2_0 0
Z_548_2_1 0
Z_548_2_2 0
Z_548_2_3 0
Z_548_2_4 1
Z_548_6_0 0
Z_548_6_1 0
Z_548_6_2 0
Z_548_6_3 0
Z_548_6_4 1
Z_548_0_0 0
Z_548_0_1 0
Z_548_0_2 0
Z_548_0_3 0
Z_548_0_4 1
Z_548_3_0 0
Z_548_3_1 0
Z_548_3_2 0
Z_548_3_3 0
Z_548_3_4 1
Z_87_1_0 1
Z_87_1_1 0
Z_87_1_2 0
Z_87_1_3 0
Z_87_1_4 0
Z_87_2_0 0
Z_87_2_1 0
Z_87_2_2 1
Z_87_2_3 0
Z_87_2_4 0
Z_87_0_0 0
Z_87_0_1 0
Z_87_0_2 0
Z_87_0_3 1
Z_87_0_4 0
Z_127_1_0 0
Z_127_1_1 0
Z_127_1_2 1
Z_127_1_3 0
Z_127_1_4 0
Z_127_0_0 0
Z_127_0_1 0
Z_127_0_2 0
Z_127_0_3 1
Z_127_0_4 0
Z_511_2_0 0
Z_511_2_1 0
Z_511_2_2 1
Z_511_2_3 0
Z_511_2_4 0
Z_511_0_0 0
Z_511_0_1 0
Z_511_0_2 0
Z_511_0_3 1
Z_511_0_4 0
Z_511_1_0 1
Z_511_1_1 0
Z_511_1_2 0
Z_511_1_3 0
Z_511_1_4 0
Z_561_0_0 0
Z_561_0_1 0
Z_561_0_2 0
Z_561_0_3 1
Z_561_0_4 0
Z_561_1_0 0
Z_561_1_1 0
Z_561_1_2 1
Z_561_1_3 0
Z_561_1_4 0
Z_403_0_0 0
Z_403_0_1 1
Z_403_0_2 0
Z_403_0_3 0
Z_403_0_4 0
Z_403_2_0 0
Z_403_2_1 0
Z_403_2_2 0
Z_403_2_3 0
Z_403_2_4 1
Z_403_1_0 0
Z_403_1_1 0
Z_403_1_2 0
Z_403_1_3 0
Z_403_1_4 1
Z_403_3_0 0
Z_403_3_1 0
Z_403_3_2 0
Z_403_3_3 0
Z_403_3_4 1
Z_15_3_0 0
Z_15_3_1 0
Z_15_3_2 0
Z_15_3_3 0
Z_15_3_4 1
Z_15_2_0 0
Z_15_2_1 0
Z_15_2_2 0
Z_15_2_3 0
Z_15_2_4 1
Z_15_1_0 0
Z_15_1_1 0
Z_15_1_2 0
Z_15_1_3 0
Z_15_1_4 1
Z_15_5_0 0
Z_15_5_1 0
Z_15_5_2 0
Z_15_5_3 0
Z_15_5_4 1
Z_15_6_0 0
Z_15_6_1 0
Z_15_6_2 0
Z_15_6_3 0
Z_15_6_4 1
Z_15_4_0 0
Z_15_4_1 0
Z_15_4_2 0
Z_15_4_3 0
Z_15_4_4 1
Z_331_0_0 0
Z_331_0_1 0
Z_331_0_2 0
Z_331_0_3 1
Z_331_0_4 0
Z_272_0_0 0
Z_272_0_1 0
Z_272_0_2 0
Z_272_0_3 1
Z_272_0_4 0
Z_338_0_0 1
Z_338_0_1 0
Z_338_0_2 0
Z_338_0_3 0
Z_338_0_4 0
Z_338_1_0 0
Z_338_1_1 0
Z_338_1_2 1
Z_338_1_3 0
Z_338_1_4 0
Z_291_1_0 0
Z_291_1_1 0
Z_291_1_2 1
Z_291_1_3 0
Z_291_1_4 0
Z_291_0_0 0
Z_291_0_1 0
Z_291_0_2 0
Z_291_0_3 1
Z_291_0_4 0
Z_308_2_0 0
Z_308_2_1 0
Z_308_2_2 1
Z_308_2_3 0
Z_308_2_4 0
Z_308_0_0 0
Z_308_0_1 0
Z_308_0_2 0
Z_308_0_3 1
Z_308_0_4 0
Z_308_1_0 1
Z_308_1_1 0
Z_308_1_2 0
Z_308_1_3 0
Z_308_1_4 0
Z_358_3_0 1
Z_358_3_1 0
Z_358_3_2 0
Z_358_3_3 0
Z_358_3_4 0
Z_358_1_0 0
Z_358_1_1 0
Z_358_1_2 0
Z_358_1_3 0
Z_358_1_4 1
Z_358_2_0 0
Z_358_2_1 0
Z_358_2_2 0
Z_358_2_3 0
Z_358_2_4 1
Z_358_0_0 0
Z_358_0_1 0
Z_358_0_2 1
Z_358_0_3 0
Z_358_0_4 0
Z_358_8_0 0
Z_358_8_1 0
Z_358_8_2 0
Z_358_8_3 1
Z_358_8_4 0
Z_547_0_0 0
Z_547_0_1 1
Z_547_0_2 0
Z_547_0_3 0
Z_547_0_4 0
Z_487_0_0 0
Z_487_0_1 1
Z_487_0_2 0
Z_487_0_3 0
Z_487_0_4 0
Z_175_0_0 0
Z_175_0_1 0
Z_175_0_2 0
Z_175_0_3 1
Z_175_0_4 0
Z_3_1_0 0
Z_3_1_1 1
Z_3_1_2 0
Z_3_1_3 0
Z_3_1_4 0
Z_3_0_0 0
Z_3_0_1 0
Z_3_0_2 0
Z_3_0_3 0
Z_3_0_4 1
Z_3_3_0 0
Z_3_3_1 0
Z_3_3_2 0
Z_3_3_3 1
Z_3_3_4 0
Z_3_2_0 0
Z_3_2_1 0
Z_3_2_2 0
Z_3_2_3 0
Z_3_2_4 1
Z_161_1_0 0
Z_161_1_1 0
Z_161_1_2 0
Z_161_1_3 0
Z_161_1_4 1
Z_161_0_0 0
Z_161_0_1 0
Z_161_0_2 1
Z_161_0_3 0
Z_161_0_4 0
Z_566_0_0 0
Z_566_0_1 1
Z_566_0_2 0
Z_566_0_3 0
Z_566_0_4 0
Z_615_1_0 1
Z_615_1_1 0
Z_615_1_2 0
Z_615_1_3 0
Z_615_1_4 0
Z_458_0_0 0
Z_458_0_1 1
Z_458_0_2 0
Z_458_0_3 0
Z_458_0_4 0
Z_141_0_0 0
Z_141_0_1 0
Z_141_0_2 0
Z_141_0_3 0
Z_141_0_4 1
Z_50_0_0 1
Z_50_0_1 0
Z_50_0_2 0
Z_50_0_3 0
Z_50_0_4 0
Z_50_1_0 0
Z_50_1_1 0
Z_50_1_2 1
Z_50_1_3 0
Z_50_1_4 0
Z_273_4_0 0
Z_273_4_1 0
Z_273_4_2 0
Z_273_4_3 0
Z_273_4_4 1
Z_273_8_0 0
Z_273_8_1 0
Z_273_8_2 0
Z_273_8_3 0
Z_273_8_4 1
Z_273_3_0 0
Z_273_3_1 0
Z_273_3_2 0
Z_273_3_3 0
Z_273_3_4 1
Z_273_2_0 0
Z_273_2_1 0
Z_273_2_2 0
Z_273_2_3 0
Z_273_2_4 1
Z_273_1_0 0
Z_273_1_1 0
Z_273_1_2 0
Z_273_1_3 0
Z_273_1_4 1
Z_273_6_0 0
Z_273_6_1 0
Z_273_6_2 0
Z_273_6_3 0
Z_273_6_4 1
Z_273_0_0 0
Z_273_0_1 0
Z_273_0_2 0
Z_273_0_3 0
Z_273_0_4 1
Z_273_7_0 0
Z_273_7_1 0
Z_273_7_2 0
Z_273_7_3 0
Z_273_7_4 1
Z_273_5_0 0
Z_273_5_1 0
Z_273_5_2 0
Z_273_5_3 1
Z_273_5_4 0
Z_273_10_0 0
Z_273_10_1 0
Z_273_10_2 0
Z_273_10_3 0
Z_273_10_4 1
Z_273_9_0 0
Z_273_9_1 0
Z_273_9_2 0
Z_273_9_3 0
Z_273_9_4 1
Z_694_1_0 0
Z_694_1_1 0
Z_694_1_2 1
Z_694_1_3 0
Z_694_1_4 0
Z_694_0_0 1
Z_694_0_1 0
Z_694_0_2 0
Z_694_0_3 0
Z_694_0_4 0
